(set-logic QF_SLIA)
(declare-fun var0 () String)
(assert (str.in_re var0 (re.++ ((_ re.loop 1 385) (re.++ (re.union (str.to_re "eW") (re.union (str.to_re "c_") (re.union (str.to_re "'V[") (str.to_re "Tf")))) (re.++ (re.union (str.to_re "F") (re.union (str.to_re "!K") (re.union (str.to_re "I") (str.to_re "!")))) (re.++ (re.union (str.to_re "9") (re.union (str.to_re "nPP") (re.union (str.to_re "6}") (str.to_re "A")))) (re.union (str.to_re "^+V") (re.union (str.to_re "i\u0022") (re.union (str.to_re "8") (str.to_re "uH")))))))) (re.++ ((_ re.loop 13 482) (re.++ (re.union (str.to_re ")3+") (re.union (str.to_re "1<") (re.union (str.to_re "@#8") (str.to_re "XZ")))) (re.++ (re.union (str.to_re "K=") (re.union (str.to_re "qZI") (re.union (str.to_re "k") (str.to_re "OB.")))) (re.++ (re.union (str.to_re "O") (re.union (str.to_re "e'[") (re.union (str.to_re ">H&") (str.to_re "gF")))) (re.union (str.to_re "a") (re.union (str.to_re "f") (re.union (str.to_re "q:") (str.to_re "l~O")))))))) (re.++ ((_ re.loop 0 82) (re.++ (re.union (str.to_re "sFM") (re.union (str.to_re "9Wj") (re.union (str.to_re "Y") (str.to_re "/%o")))) (re.++ (re.union (str.to_re ")L]") (re.union (str.to_re "\\Fm") (re.union (str.to_re ";3") (str.to_re "K#")))) (re.++ (re.union (str.to_re "mM7") (re.union (str.to_re "`z") (re.union (str.to_re ":") (str.to_re "d")))) (re.union (str.to_re "mUV") (re.union (str.to_re "^<r") (re.union (str.to_re "Sv") (str.to_re ")")))))))) ((_ re.loop 4 193) (re.++ (re.union (str.to_re "J") (re.union (str.to_re "v2") (re.union (str.to_re "j") (str.to_re "(~")))) (re.++ (re.union (str.to_re "`") (re.union (str.to_re "m`") (re.union (str.to_re "V.") (str.to_re "s")))) (re.++ (re.union (str.to_re "sF") (re.union (str.to_re "y") (re.union (str.to_re "t") (str.to_re ">@")))) (re.union (str.to_re "6]") (re.union (str.to_re "E#") (re.union (str.to_re "R\u0022X") (str.to_re "ZxE")))))))))))))
(assert (not (str.in_re var0 (re.++ ((_ re.loop 20 839) (re.++ (re.union (str.to_re "?u4") (re.union (str.to_re "Q5o") (re.union (str.to_re "4") (str.to_re "l")))) (re.++ (re.union (str.to_re "x\\O") (re.union (str.to_re "X%1") (re.union (str.to_re "w&o") (str.to_re "6KJ")))) (re.++ (re.union (str.to_re "N") (re.union (str.to_re "[") (re.union (str.to_re "TrM") (str.to_re "s`X")))) (re.union (str.to_re "Y") (re.union (str.to_re "3O2") (re.union (str.to_re "nAZ") (str.to_re "L0<")))))))) (re.++ ((_ re.loop 0 603) (re.++ (re.union (str.to_re "1K") (re.union (str.to_re "R?") (re.union (str.to_re ")O") (str.to_re "g~h")))) (re.++ (re.union (str.to_re "D") (re.union (str.to_re "K") (re.union (str.to_re "sT") (str.to_re ";")))) (re.++ (re.union (str.to_re "s*d") (re.union (str.to_re "i") (re.union (str.to_re "NQ") (str.to_re "\\z")))) (re.union (str.to_re "o%") (re.union (str.to_re "W") (re.union (str.to_re "~4") (str.to_re "_")))))))) (re.++ ((_ re.loop 6 547) (re.++ (re.union (str.to_re "f") (re.union (str.to_re "\u0022\\") (re.union (str.to_re "Q*") (str.to_re "m")))) (re.++ (re.union (str.to_re "$") (re.union (str.to_re "6`+") (re.union (str.to_re "{^A") (str.to_re "9")))) (re.++ (re.union (str.to_re "IN") (re.union (str.to_re "A") (re.union (str.to_re "a|J") (str.to_re "lU")))) (re.union (str.to_re "#") (re.union (str.to_re "6") (re.union (str.to_re "-]") (str.to_re "^q")))))))) ((_ re.loop 15 345) (re.++ (re.union (str.to_re "H&") (re.union (str.to_re "Zm") (re.union (str.to_re ">~T") (str.to_re "::")))) (re.++ (re.union (str.to_re "\u0022") (re.union (str.to_re "'#") (re.union (str.to_re "{s7") (str.to_re "4$")))) (re.++ (re.union (str.to_re "h") (re.union (str.to_re "8]M") (re.union (str.to_re "C") (str.to_re "M._")))) (re.union (str.to_re "#") (re.union (str.to_re "[") (re.union (str.to_re "r3E") (str.to_re "*"))))))))))))))
(assert (not (str.in_re var0 (re.++ (re.* re.allchar) (re.++ (re.union (str.to_re "<") (re.union (str.to_re ">") (re.union (str.to_re "'") (re.union (str.to_re "\u0022") (str.to_re "&"))))) (re.* re.allchar))))))
(assert (<= 50 (str.len var0)))
(check-sat)
(get-model)
